NAME : explosion
TYPE : TSP
DIMENSION : 50
EDGE_WEIGHT_TYPE : EUC_2D
NODE_COORD_SECTION
1 984103 38384
2 848926 836463
3 681211 985310
4 44251 320138
5 771710 790521
6 451520 394476
7 191345 382661
8 925881 537320
9 736557 395586
10 883185 635568
11 975205 18826
12 757269 443505
13 88486 296046
14 903171 557217
15 924589 211762
16 985782 330798
17 516901 29486
18 422421 399334
19 862299 859384
20 907227 973046
21 536667 420837
22 911157 375691
23 907643 134206
24 788794 338404
25 993412 465850
26 739511 725088
27 938230 95780
28 827461 28312
29 20453 890259
30 817331 635242
31 46081 491192
32 870893 560951
33 723681 602117
34 862368 814267
35 159168 499090
36 741404 201315
37 113080 859001
38 131036 263681
39 36164 747764
40 927379 109866
41 781338 299364
42 834645 31614
43 837936 526853
44 948779 35314
45 89512 697386
46 557647 621372
47 721483 672886
48 727502 665165
49 672868 146841
50 50976 635485
EOF
